
******************************************************************************
This program contains Ipopt, a library for large-scale nonlinear optimization.
 Ipopt is released as open source code under the Eclipse Public License (EPL).
         For more information visit http://projects.coin-or.org/Ipopt
******************************************************************************

This is Ipopt version 3.12.6, running with linear solver ma57.

Number of nonzeros in equality constraint Jacobian...:    10288
Number of nonzeros in inequality constraint Jacobian.:        0
Number of nonzeros in Lagrangian Hessian.............:     7867

Total number of variables............................:     5144
                     variables with only lower bounds:      241
                variables with lower and upper bounds:        4
                     variables with only upper bounds:        0
Total number of equality constraints.................:     3844
Total number of inequality constraints...............:        0
        inequality constraints with only lower bounds:        0
   inequality constraints with lower and upper bounds:        0
        inequality constraints with only upper bounds:        0

iter    objective    inf_pr   inf_du lg(mu)  ||d||  lg(rg) alpha_du alpha_pr  ls
   0  9.7571643e+01 9.78e+00 9.36e-01  -1.0 0.00e+00    -  0.00e+00 0.00e+00   0
   1  9.7642843e+01 9.75e+00 1.16e+00  -1.0 6.56e+00    -  1.53e-03 2.56e-03f  1
   2  1.7278544e+02 7.48e+00 3.38e+01  -1.0 8.16e+00    -  3.34e-03 2.33e-01h  1
   3  1.7435512e+02 7.45e+00 2.45e+01  -1.0 7.17e+00    -  4.99e-02 4.44e-03h  1
   4  3.5042084e+02 5.44e+00 1.36e+02  -1.0 7.28e+00    -  3.76e-02 2.70e-01h  1
   5  4.1058092e+02 4.41e+00 1.34e+02  -1.0 5.58e+00    -  8.32e-02 1.89e-01h  1
   6  6.1442313e+02 8.88e-16 5.44e+00  -1.0 4.56e+00    -  1.18e-01 1.00e+00h  1
   7  5.8253110e+02 5.08e-08 3.73e+00  -1.0 2.94e+00    -  3.09e-01 1.00e+00f  1
   8  5.7429324e+02 1.22e-08 2.33e+00  -1.7 2.77e+00    -  3.70e-01 7.60e-01f  1
   9  5.7117946e+02 4.85e-09 1.42e+00  -1.7 4.00e+00    -  3.90e-01 1.00e+00f  1
iter    objective    inf_pr   inf_du lg(mu)  ||d||  lg(rg) alpha_du alpha_pr  ls
  10  5.7112815e+02 8.88e-16 2.85e-01  -1.7 3.13e-01    -  8.00e-01 1.00e+00f  1
  11  5.7086217e+02 7.46e-10 2.11e-02  -2.5 3.32e-01    -  9.25e-01 1.00e+00f  1
  12  5.7074529e+02 1.78e-15 2.61e-04  -3.8 1.04e-01    -  9.96e-01 1.00e+00f  1
  13  5.7071922e+02 1.69e-14 3.52e-05  -3.8 4.62e-02    -  1.00e+00 1.00e+00f  1
  14  5.7071327e+02 5.84e-12 2.36e-03  -5.7 2.30e-02    -  1.00e+00 8.52e-01f  1
  15  5.7071206e+02 5.94e-13 2.08e-03  -5.7 1.25e-02    -  1.00e+00 8.98e-01f  1
  16  5.7071192e+02 1.49e-12 9.40e-06  -5.7 4.95e-03    -  1.00e+00 9.99e-01f  1
  17  5.7071190e+02 4.85e-14 7.05e-05  -8.6 1.76e-03    -  1.00e+00 9.68e-01f  1
  18  5.7071190e+02 3.11e-15 4.63e-09  -8.6 7.79e-04    -  1.00e+00 1.00e+00f  1
  19  5.7071190e+02 8.98e-15 6.24e-10  -8.6 2.84e-04    -  1.00e+00 1.00e+00h  1
iter    objective    inf_pr   inf_du lg(mu)  ||d||  lg(rg) alpha_du alpha_pr  ls
  20  5.7071190e+02 1.86e-15 2.68e-11  -8.6 5.89e-05    -  1.00e+00 1.00e+00h  1

Number of Iterations....: 20

                                   (scaled)                 (unscaled)
Objective...............:   5.7071189891054337e+02    5.7071189891054337e+02
Dual infeasibility......:   2.6758884211631855e-11    2.6758884211631855e-11
Constraint violation....:   1.8596235662471372e-15    1.8596235662471372e-15
Complementarity.........:   7.9621725972192413e-09    7.9621725972192413e-09
Overall NLP error.......:   7.9621725972192413e-09    7.9621725972192413e-09


Number of objective function evaluations             = 21
Number of objective gradient evaluations             = 21
Number of equality constraint evaluations            = 21
Number of inequality constraint evaluations          = 0
Number of equality constraint Jacobian evaluations   = 21
Number of inequality constraint Jacobian evaluations = 0
Number of Lagrangian Hessian evaluations             = 20
Total CPU secs in IPOPT (w/o function evaluations)   =      0.250
Total CPU secs in NLP function evaluations           =      0.057

EXIT: Optimal Solution Found.

************************ CUTEst statistics ************************


 Package used            :  IPOPT
 Problem                 :  GRIDNETD  
 # variables             =            7564
 # constraints           =            3844
 # objective functions   =        0.4300000E+02
 # objective gradients   =        0.2200000E+02
 # objective Hessians    =        0.2100000E+02
 # Hessian-vector prdct  =        0.0000000E+00
 # constraints functions =        0.4400000E+02
 # constraints gradients =        0.2300000E+02
 # constraints Hessians  =        0.2100000E+02
 Exit code               =               0
 Final f                 =   0.5707119E+03
 Set up time             =            0.14 seconds
 Solve time              =            0.43 seconds


******************************************************************

System Time =       0.2919999957 s.
